RT is False
Default write of storage_offers_DA.csv just to have a file (but constraint should be inactive)
Reading model...
...model read.
creating competitive generators file...
...competitive generators recorded.
Loading data...
.. day-ahead data with real-time VRE data read.
Compiling instance...
...instance created.
Creating Offer Mitigation (model will solve as dispatch if TRUE)...
NOTE: storage offers will not be mitigated
...storage offer mitigation file created
Converting model to MPEC...
...converted
NOTE: initial MIP solve with only storage competitive to get feasible solution
Solving...

Welcome to IBM(R) ILOG(R) CPLEX(R) Interactive Optimizer 12.8.0.0
  with Simplex, Mixed Integer & Barrier Optimizers
5725-A06 5725-A29 5724-Y48 5724-Y49 5724-Y54 5724-Y55 5655-Y21
Copyright IBM Corp. 1988, 2017.  All Rights Reserved.

Type 'help' for a list of available commands.
Type 'help' followed by a command name for more
information on commands.

CPLEX> Logfile 'cplex.log' closed.
Logfile 'C:\Users\llavi\Desktop\test919\logs\tmplv3y0t53.cplex.log' open.
CPLEX> New value for parallel optimization mode: -1
CPLEX> New value for mixed integer optimality gap tolerance: 0.01
CPLEX> New value for integrality tolerance: 1e-09
CPLEX> New value for feasibility tolerance: 0.01
CPLEX> New value for deterministic time limit in ticks: 75000
CPLEX> Problem 'C:\Users\llavi\Desktop\test919\logs\tmpi89sr3yg.pyomo.lp' read.
Read time = 0.28 sec. (13.50 ticks)
CPLEX> Problem name         : C:\Users\llavi\Desktop\test919\logs\tmpi89sr3yg.pyomo.lp
Objective sense      : Maximize
Variables            :   54021  [Nneg: 1,  Box: 22008,  Free: 4464,
                                 Binary: 27548]
Objective nonzeros   :    8980
Linear constraints   :  123829  [Less: 41554,  Greater: 59512,  Equal: 22763]
  Nonzeros           :  300593
  RHS nonzeros       :   67901

Variables            : Min LB: -5000.000        Max UB: 1000000.       
Objective nonzeros   : Min   : 0.3583333        Max   : 783.1917       
Linear constraints   :
  Nonzeros           : Min   : 0.001000000      Max   : 1000000.       
  RHS nonzeros       : Min   : 0.3583333        Max   : 1000000.       
CPLEX> CPXPARAM_Simplex_Tolerances_Feasibility          0.01
CPXPARAM_Parallel                                -1
CPXPARAM_DetTimeLimit                            75000
CPXPARAM_MIP_Tolerances_MIPGap                   0.01
CPXPARAM_MIP_Tolerances_Integrality              1.0000000000000001e-09
Tried aggregator 3 times.
MIP Presolve eliminated 89250 rows and 19142 columns.
MIP Presolve added 3397 rows and 0 columns.
MIP Presolve modified 23875 coefficients.
Aggregator did 13051 substitutions.
Reduced MIP has 24925 rows, 21272 columns, and 71159 nonzeros.
Reduced MIP has 8420 binaries, 0 generals, 0 SOSs, and 0 indicators.
Presolve time = 0.34 sec. (167.10 ticks)
Probing fixed 399 vars, tightened 2828 bounds.
Probing time = 3.63 sec. (901.26 ticks)
Tried aggregator 2 times.
MIP Presolve eliminated 900 rows and 804 columns.
MIP Presolve modified 2190 coefficients.
Aggregator did 45 substitutions.
Reduced MIP has 23980 rows, 20423 columns, and 68410 nonzeros.
Reduced MIP has 8019 binaries, 0 generals, 0 SOSs, and 0 indicators.
Presolve time = 0.11 sec. (56.04 ticks)
Probing time = 0.06 sec. (15.51 ticks)
Clique table members: 6457.
MIP emphasis: balance optimality and feasibility.
MIP search method: dynamic search.
Parallel mode: opportunistic, using up to 4 threads.
Root relaxation solution time = 0.70 sec. (478.93 ticks)

        Nodes                                         Cuts/
   Node  Left     Objective  IInf  Best Integer    Best Bound    ItCnt     Gap

      0     0     7839.5640   720                   7839.5640     3501         
      0     0     7839.2633    21                    Cuts: 36     3515         
      0     0     7838.8850    17                    Cuts: 21     3524         
      0     0     7838.6650    16                    Cuts: 17     3526         
      0     0     7838.6650    16                     Cuts: 4     3526         
      0     2     7838.6650    16                   7834.2073     3526         
Elapsed time = 16.08 sec. (4993.81 ticks, tree = 0.03 MB, solutions = 0)
     64    58     7774.8935     4                   7834.2073     3730         
    129   108    infeasible                         7834.2073     3901         
    157   122    infeasible                         7834.2073     3950         
    178   135     7721.5658     1                   7834.2073     4015         
    196   137     7721.5658     2                   7834.2073     4023         
    210   138     7787.1907     2                   7834.2073     4029         
    223   142     7721.5658     2                   7834.2073     4036         
    235   145     7721.5658     1                   7834.2073     4045         
    245   149     7773.8158     2                   7834.2073     4056         
    282   155    infeasible                         7834.2073     4079         
Elapsed time = 20.11 sec. (8223.43 ticks, tree = 0.65 MB, solutions = 0)
    317   160     7773.8158     2                   7834.2073     4093         
    351   170     7787.1907     2                   7834.2073     4126         
    380   182     7721.5658     2                   7834.2073     4187         
    404   195     7773.8158     2                   7834.2073     4214         
    428   199     7756.7565     2                   7834.2073     4224         
    449   208     7721.5658     2                   7834.2073     4245         
    471   214    infeasible                         7834.2073     4279         
    488   220     7721.5658     2                   7834.2073     4290         
    506   225     7756.7565     2                   7834.2073     4299         
    528   232     7753.9889     2                   7834.2073     4316         
Elapsed time = 31.27 sec. (18266.77 ticks, tree = 1.17 MB, solutions = 0)
    547   237     7756.7565     2                   7834.2073     4326         
    564   242     7773.8158     2                   7834.2073     4337         
    580   246     7753.9889     2                   7834.2073     4353         
    595   249    infeasible                         7834.2073     4359         
    615   255     7721.5658     1                   7834.2073     4374         
    642   267    infeasible                         7834.2073     4442         
    660   266     7753.9889     2                   7834.2073     4406         
    686   265     7773.8158     2                   7834.2073     4402         
    714   289     7756.7565     2                   7834.2073     4542         
    733   302     7721.5658     2                   7834.2073     4601         
Elapsed time = 41.50 sec. (28802.59 ticks, tree = 1.86 MB, solutions = 0)
    755   316     7756.7565     2                   7834.2073     4719         
    769   330     7773.8158     2                   7834.2073     4757         
    798   331     7756.7565     2                   7834.2073     4760         
    813   349     7721.5658     2                   7834.2073     4959         
    837   363     7721.5658     2                   7834.2073     5361         
    888   352    infeasible                         7834.2073     4967         
    925   394     7656.6213     1                   7834.2073     5828         
    938   389    infeasible                         7834.2073     5635         
    954   414     7753.9889     2                   7834.2073     5957         
    965   441    infeasible                         7834.2073     6396         
Elapsed time = 56.44 sec. (40013.37 ticks, tree = 3.00 MB, solutions = 0)
    980   447     7753.9889     2                   7834.2073     6403         
    993   454     7753.9889     2                   7834.2073     6419         
   1006   455     7753.9889     2                   7834.2073     6422         
   1015   463     7753.9889     2                   7834.2073     6451         
   1026   464     7753.9889     2                   7834.2073     6452         
   1034   472     7753.9889     2                   7834.2073     6485         
   1045   473     7753.9889     2                   7834.2073     6486         
   1054   473     7753.9889     2                   7834.2073     6488         
   1065   479     7753.9889     2                   7834.2073     6503         
   1073   478     7741.2120     2                   7834.2073     6501         
Elapsed time = 68.92 sec. (50058.07 ticks, tree = 3.27 MB, solutions = 0)
   1085   483     7741.2120     2                   7834.2073     6514         
   1093   483     7741.2120     2                   7834.2073     6516         
   1107   484     7741.2120     2                   7834.2073     6517         
   1120   491     7741.2120     2                   7834.2073     6558         
   1133   493     7741.2120     2                   7834.2073     6562         
   1145   496     7741.2120     2                   7834.2073     6565         
   1154   506     7741.2120     2                   7834.2073     6622         
   1166   507     7741.2120     2                   7834.2073     6624         
   1177   513     7721.5658     2                   7834.2073     6632         
   1186   514     7721.5658     1                   7834.2073     6633         
Elapsed time = 83.70 sec. (61050.29 ticks, tree = 3.63 MB, solutions = 0)
   1197   514     7721.5658     2                   7834.2073     6635         
   1206   525     7721.5658     2                   7834.2073     6664         
   1218   526     7721.5658     2                   7834.2073     6665         
   1226   526     7721.5658     2                   7834.2073     6667         
   1238   533     7721.5658     2                   7834.2073     6692         
   1245   534     7721.5658     1                   7834.2073     6693         
   1256   534     7721.5658     2                   7834.2073     6694         
   1265   540     7721.5658     2                   7834.2073     6710         
   1276   540     7721.5658     2                   7834.2073     6712         
   1286   541     7721.5658     2                   7834.2073     6713         
Elapsed time = 98.91 sec. (73801.23 ticks, tree = 3.79 MB, solutions = 0)
   1299   547     7721.5658     1                   7834.2073     6732         

Cover cuts applied:  1
Implied bound cuts applied:  3
Flow cuts applied:  23
Mixed integer rounding cuts applied:  4
Gomory fractional cuts applied:  6

Root node processing (before b&c):
  Real time             =   15.67 sec. (4952.57 ticks)
Parallel b&c, 4 threads:
  Real time             =   85.16 sec. (70876.47 ticks)
  Sync time (average)   =    0.09 sec.
  Wait time (average)   =    0.01 sec.
                          ------------
Total (root+branch&cut) =  100.83 sec. (75829.04 ticks)


MIP - Deterministic time limit exceeded, no integer solution.
Current MIP best bound =  7.8342072523e+03 (gap is infinite)
Solution time =  100.83 sec.  Iterations = 6753  Nodes = 1303 (554)
Deterministic time = 75829.19 ticks  (752.06 ticks/sec)

CPLEX> CPLEX Error  1217: No solution exists.
No file written.
CPLEX> gap is infinite, so writing 0
NOTE: no warmstart specified for MIP iteration, default behavior is true
NOTE: resolving with all competitive generators using storage-only solution to warmstart
Solving...

Welcome to IBM(R) ILOG(R) CPLEX(R) Interactive Optimizer 12.8.0.0
  with Simplex, Mixed Integer & Barrier Optimizers
5725-A06 5725-A29 5724-Y48 5724-Y49 5724-Y54 5724-Y55 5655-Y21
Copyright IBM Corp. 1988, 2017.  All Rights Reserved.

Type 'help' for a list of available commands.
Type 'help' followed by a command name for more
information on commands.

CPLEX> Logfile 'cplex.log' closed.
Logfile 'C:\Users\llavi\Desktop\test919\logs\tmpbwj7tkp7.cplex.log' open.
CPLEX> New value for parallel optimization mode: -1
CPLEX> New value for mixed integer optimality gap tolerance: 0.01
CPLEX> New value for integrality tolerance: 1e-09
CPLEX> New value for feasibility tolerance: 0.01
CPLEX> New value for deterministic time limit in ticks: 75000
CPLEX> Problem 'C:\Users\llavi\Desktop\test919\logs\tmpmezu7jp1.pyomo.lp' read.
Read time = 0.30 sec. (13.52 ticks)
CPLEX> MIP start file 'C:\Users\llavi\Desktop\test919\logs\tmpu4xxixob.cplex.mst' read.
CPLEX> Problem name         : C:\Users\llavi\Desktop\test919\logs\tmpmezu7jp1.pyomo.lp
Objective sense      : Maximize
Variables            :   54741  [Nneg: 1,  Box: 22728,  Free: 4464,
                                 Binary: 27548]
Objective nonzeros   :    9700
Linear constraints   :  123829  [Less: 41554,  Greater: 59512,  Equal: 22763]
  Nonzeros           :  300593
  RHS nonzeros       :   67901

Variables            : Min LB: -5000.000        Max UB: 1000000.       
Objective nonzeros   : Min   : 0.3583333        Max   : 783.1917       
Linear constraints   :
  Nonzeros           : Min   : 0.001000000      Max   : 1000000.       
  RHS nonzeros       : Min   : 0.3583333        Max   : 1000000.       
CPLEX> CPXPARAM_Simplex_Tolerances_Feasibility          0.01
CPXPARAM_Parallel                                -1
CPXPARAM_DetTimeLimit                            75000
CPXPARAM_MIP_Tolerances_MIPGap                   0.01
CPXPARAM_MIP_Tolerances_Integrality              1.0000000000000001e-09
Warning:  No solution found from 1 MIP starts.
Retaining values of one MIP start for possible repair.
Tried aggregator 3 times.
MIP Presolve eliminated 89250 rows and 19862 columns.
MIP Presolve added 3397 rows and 0 columns.
MIP Presolve modified 23875 coefficients.
Aggregator did 13051 substitutions.
Reduced MIP has 24925 rows, 21272 columns, and 71159 nonzeros.
Reduced MIP has 8420 binaries, 0 generals, 0 SOSs, and 0 indicators.
Presolve time = 0.28 sec. (167.47 ticks)
Probing fixed 399 vars, tightened 2828 bounds.
Probing time = 3.59 sec. (901.26 ticks)
Tried aggregator 2 times.
MIP Presolve eliminated 900 rows and 804 columns.
MIP Presolve modified 2190 coefficients.
Aggregator did 45 substitutions.
Reduced MIP has 23980 rows, 20423 columns, and 68410 nonzeros.
Reduced MIP has 8019 binaries, 0 generals, 0 SOSs, and 0 indicators.
Presolve time = 0.13 sec. (56.06 ticks)
Probing time = 0.06 sec. (15.51 ticks)
Clique table members: 6457.
MIP emphasis: balance optimality and feasibility.
MIP search method: dynamic search.
Parallel mode: opportunistic, using up to 4 threads.
Root relaxation solution time = 0.64 sec. (461.00 ticks)

        Nodes                                         Cuts/
   Node  Left     Objective  IInf  Best Integer    Best Bound    ItCnt     Gap

      0     0     7839.5640   715                   7839.5640     3417         
      0     0     7839.2633    28                    Cuts: 55     3434         
      0     0     7838.8850    24                    Cuts: 23     3442         
      0     0     7838.6650    25                    Cuts: 17     3451         
      0     0     7838.6650    25                     Cuts: 4     3451         
Repair heuristic found nothing.
      0     2     7838.6650    25                   7838.6650     3451         
Elapsed time = 25.72 sec. (7875.20 ticks, tree = 0.04 MB, solutions = 0)
     69    47     7774.8935     3                   7835.9857     3587         
    141   127     7773.8158     2                   7835.9857     3833         
    174   147    infeasible                         7835.9857     3914         
    197   157     7754.7594     2                   7835.9857     3945         
    214   162    infeasible                         7835.9857     3970         
    234   170     7773.8158     2                   7835.9857     3997         
    249   171     7773.8158     2                   7835.9857     4006         
    265   172    infeasible                         7835.9857     4010         
    277   176    infeasible                         7835.9857     4019         
    315   188    infeasible                         7835.9857     4080         
Elapsed time = 31.13 sec. (11137.23 ticks, tree = 0.90 MB, solutions = 0)
    348   193     7753.9889     2                   7835.9857     4095         
    378   202     7753.9889     2                   7835.9857     4115         
    406   207     7726.1208     3                   7835.9857     4125         
    435   213     7735.0110     1                   7835.9857     4170         
    473   233     7753.6624     1                   7835.9857     4237         
    494   242     7753.6624     2                   7835.9857     4274         
    514   249     7753.6624     2                   7835.9857     4317         
    533   254     7753.6624     2                   7835.9857     4335         
    553   257     7735.0110     2                   7835.9857     4345         
    573   264     7735.0110     2                   7835.9857     4361         
Elapsed time = 44.25 sec. (21412.27 ticks, tree = 1.44 MB, solutions = 0)
    591   274     7754.0674     2                   7835.9857     4399         
    607   276    infeasible                         7835.9857     4422         
    624   281     7735.0110     2                   7835.9857     4430         
    639   283     7754.0674     2                   7835.9857     4438         
    653   285     7735.0110     2                   7835.9857     4444         
    668   292     7754.0674     2                   7835.9857     4460         
    692   293     7753.6624     2                   7835.9857     4470         
    706   298     7754.0674     2                   7835.9857     4500         
    724   305     7735.0110     2                   7835.9857     4534         
    758   316     7630.2740     3                   7835.9857     4631         
Elapsed time = 57.98 sec. (31899.59 ticks, tree = 1.82 MB, solutions = 0)
    792   341     7735.0110     3                   7835.9857     4783         
    807   353     7754.0674     3                   7835.9857     4912         
    832   375    infeasible                         7835.9857     5238         
    848   367     7711.5105     2                   7835.9857     5099         
    877   391     7547.9013     3                   7835.9857     5374         
    900   410    infeasible                         7835.9857     5565         
    913   423     7735.0110     2                   7835.9857     5777         
    925   402     7753.6624     1                   7835.9857     5447         
    946   445     7647.4245     1                   7835.9857     6085         
    957   449     7753.6624     1                   7835.9857     6159         
Elapsed time = 69.09 sec. (42147.43 ticks, tree = 3.01 MB, solutions = 0)
    970   453     7753.6624     2                   7835.9857     6174         
    980   456     7754.0674     3                   7835.9857     6179         
    990   459     7754.0674     3                   7835.9857     6189         
   1001   460     7754.0674     3                   7835.9857     6191         
   1013   462     7754.0674     3                   7835.9857     6197         
   1025   463     7754.0674     3                   7835.9857     6198         
   1033   472     7754.0674     2                   7835.9857     6216         
   1043   473     7754.0674     3                   7835.9857     6232         
   1056   480     7754.0674     3                   7835.9857     6247         
   1067   481     7754.0674     3                   7835.9857     6249         
Elapsed time = 83.33 sec. (52435.43 ticks, tree = 3.25 MB, solutions = 0)
   1078   482     7754.0674     3                   7835.9857     6251         
   1090   492     7754.0674     2                   7835.9857     6289         
   1102   492     7754.0674     3                   7835.9857     6290         
   1113   501     7754.0674     3                   7835.9857     6328         
   1123   496     7735.0110     2                   7835.9857     6299         
   1135   500     7753.6624     2                   7835.9857     6323         
   1147   507     7753.6624     2                   7835.9857     6346         
   1155   508     7753.6624     2                   7835.9857     6348         
   1170   510     7753.6624     1                   7835.9857     6355         
   1178   518     7753.6624     2                   7835.9857     6371         
Elapsed time = 96.77 sec. (63701.52 ticks, tree = 3.61 MB, solutions = 0)
   1190   519     7753.6624     2                   7835.9857     6373         
   1201   522     7753.6624     1                   7835.9857     6388         
   1216   532     7753.6624     2                   7835.9857     6435         
   1228   529     7735.0110     2                   7835.9857     6422         
   1240   534     7753.6624     2                   7835.9857     6439         
   1252   538     7753.6624     2                   7835.9857     6459         
   1267   538     7753.6624     2                   7835.9857     6461         
   1282   542     7753.6624     2                   7835.9857     6472         
   1292   556     7753.6624     1                   7835.9857     6536         
   1297   556     7753.6624     2                   7835.9857     6537         
Elapsed time = 111.39 sec. (76235.40 ticks, tree = 4.71 MB, solutions = 0)

Clique cuts applied:  8
Implied bound cuts applied:  2
Flow cuts applied:  28
Mixed integer rounding cuts applied:  8
Gomory fractional cuts applied:  6

Root node processing (before b&c):
  Real time             =   25.34 sec. (7838.48 ticks)
Parallel b&c, 4 threads:
  Real time             =   86.09 sec. (68401.13 ticks)
  Sync time (average)   =    0.08 sec.
  Wait time (average)   =    0.01 sec.
                          ------------
Total (root+branch&cut) =  111.44 sec. (76239.61 ticks)


MIP - Deterministic time limit exceeded, no integer solution.
Current MIP best bound =  7.8359857177e+03 (gap is infinite)
Solution time =  111.44 sec.  Iterations = 6572  Nodes = 1298 (571)
Deterministic time = 76239.77 ticks  (684.15 ticks/sec)

CPLEX> CPLEX Error  1217: No solution exists.
No file written.
CPLEX> gap is infinite, so writing 0
Exporting results... 
